benchmark_str_length/p2_10_14-4.dzn
Alphabet = {A,C,G,T};
ns = 10;
nc = 14;
sl = 14;
neighbours = [| I(G),I(T),I(A),I(T),I(C),Null,Null,Null,Null,Null,Null,Null,Null,Null | I(A),I(C),I(T),I(A),I(T),I(A),I(T),I(T),I(A),I(A),I(G),I(A),Null,Null | I(G),I(C),I(G),I(G),I(C),I(A),Null,Null,Null,Null,Null,Null,Null,Null | I(C),I(A),I(A),I(C),I(A),I(T),I(C),I(A),I(C),I(G),I(T),I(C),Null,Null | I(A),I(A),I(A),I(T),I(G),I(G),I(A),I(C),I(T),I(G),I(T),I(T),I(G),I(C) | I(C),I(C),I(G),I(T),I(T),I(T),I(C),Null,Null,Null,Null,Null,Null,Null | I(G),I(C),I(T),I(A),I(T),I(A),I(G),I(G),I(G),I(C),I(T),Null,Null,Null | I(T),I(T),I(C),I(G),I(A),I(A),Null,Null,Null,Null,Null,Null,Null,Null | I(A),I(A),I(C),I(A),I(C),Null,Null,Null,Null,Null,Null,Null,Null,Null | I(T),I(C),I(A),I(G),I(C),I(G),I(G),Null,Null,Null,Null,Null,Null,Null |];
